522.71,72.03,82.27
496.19,75.88,86.66
571.71,65.86,75.22
555.44,67.79,77.42
545.88,68.97,78.78
520.53,72.33,82.61
538.38,69.94,79.87
551.7,68.25,77.94
549.19,68.56,78.3
576.71,65.29,74.56
591.58,63.65,72.69
560.56,67.17,76.71
532.0,70.77,80.83
514.42,73.19,83.59
471.72,79.82,91.16
539.42,69.8,79.72
528.42,71.25,81.38
536.96,70.12,80.08
553.79,67.99,77.65
551.56,68.26,77.96
